10 10
43 61 38 73 33 22 34 15 27 92 
13 10 11 85 45 66 73 28 64 26 
45 42 27 37 85 91 84 60 73 61 
35 62 26 93 51 61 77 8 85 62 
41 96 7 17 77 32 28 44 61 28 
54 88 71 87 2 16 73 56 8 36 
20 87 28 91 97 11 46 11 61 81 
14 85 17 14 88 2 16 4 75 13 
36 54 7 31 75 3 48 89 94 14 
35 66 28 71 76 28 48 34 90 57 
